\ Model birth-death-regulation-capture-efficiency
\ LP format - for model browsing. Use MPS format to capture full model detail.
Minimize
  k_reg
Subject To
 R0: k_deg_2 = 1
 B_lb_0,_0: p[0,0] + 0.1 p[0,1] + 0.01 p[0,2] + 0.001 p[0,3] + 0.1 p[1,0]
   + 0.01 p[1,1] + 0.001 p[1,2] + 0.0001 p[1,3] + 0.01 p[2,0]
   + 0.001 p[2,1] + 0.0001 p[2,2] + 1e-05 p[2,3] + 0.001 p[3,0]
   + 0.0001 p[3,1] + 1e-05 p[3,2] + 1e-06 p[3,3] + 0.0001 p[4,0]
   + 1e-05 p[4,1] + 1e-06 p[4,2] + 1e-07 p[4,3] + 1e-05 p[5,0]
   + 1e-06 p[5,1] + 1e-07 p[5,2] + 1e-08 p[5,3] >= 0.3463407407407407
 B_ub_0,_0: p[0,0] + 0.1 p[0,1] + 0.01 p[0,2] + 0.001 p[0,3] + 0.1 p[1,0]
   + 0.01 p[1,1] + 0.001 p[1,2] + 0.0001 p[1,3] + 0.01 p[2,0]
   + 0.001 p[2,1] + 0.0001 p[2,2] + 1e-05 p[2,3] + 0.001 p[3,0]
   + 0.0001 p[3,1] + 1e-05 p[3,2] + 1e-06 p[3,3] + 0.0001 p[4,0]
   + 1e-05 p[4,1] + 1e-06 p[4,2] + 1e-07 p[4,3] + 1e-05 p[5,0]
   + 1e-06 p[5,1] + 1e-07 p[5,2] + 1e-08 p[5,3] <= 0.387
 B_lb_0,_1: 0.9 p[0,1] + 0.18 p[0,2] + 0.027 p[0,3] + 0.09 p[1,1]
   + 0.018 p[1,2] + 0.0027 p[1,3] + 0.009 p[2,1] + 0.0018 p[2,2]
   + 0.00027 p[2,3] + 0.0009 p[3,1] + 0.00018 p[3,2] + 2.7e-05 p[3,3]
   + 9e-05 p[4,1] + 1.8e-05 p[4,2] + 2.7e-06 p[4,3] + 9e-06 p[5,1]
   + 1.8e-06 p[5,2] + 2.7e-07 p[5,3] >= 0.1707407407407407
 B_ub_0,_1: 0.9 p[0,1] + 0.18 p[0,2] + 0.027 p[0,3] + 0.09 p[1,1]
   + 0.018 p[1,2] + 0.0027 p[1,3] + 0.009 p[2,1] + 0.0018 p[2,2]
   + 0.00027 p[2,3] + 0.0009 p[3,1] + 0.00018 p[3,2] + 2.7e-05 p[3,3]
   + 9e-05 p[4,1] + 1.8e-05 p[4,2] + 2.7e-06 p[4,3] + 9e-06 p[5,1]
   + 1.8e-06 p[5,2] + 2.7e-07 p[5,3] <= 0.2072
 B_lb_0,_2: 0.81 p[0,2] + 0.243 p[0,3] + 0.081 p[1,2] + 0.0243 p[1,3]
   + 0.0081 p[2,2] + 0.00243 p[2,3] + 0.00081 p[3,2] + 0.000243 p[3,3]
   + 8.1e-05 p[4,2] + 2.43e-05 p[4,3] + 8.1e-06 p[5,2] + 2.43e-06 p[5,3]
   >= 0.0407407407407407
 B_ub_0,_2: 0.81 p[0,2] + 0.243 p[0,3] + 0.081 p[1,2] + 0.0243 p[1,3]
   + 0.0081 p[2,2] + 0.00243 p[2,3] + 0.00081 p[3,2] + 0.000243 p[3,3]
   + 8.1e-05 p[4,2] + 2.43e-05 p[4,3] + 8.1e-06 p[5,2] + 2.43e-06 p[5,3]
   <= 0.0686
 B_lb_0,_3: 0.729 p[0,3] + 0.0729 p[1,3] + 0.00729 p[2,3] + 0.000729 p[3,3]
   + 7.29e-05 p[4,3] + 7.29e-06 p[5,3] >= -0.00365925925925926
 B_ub_0,_3: 0.729 p[0,3] + 0.0729 p[1,3] + 0.00729 p[2,3] + 0.000729 p[3,3]
   + 7.29e-05 p[4,3] + 7.29e-06 p[5,3] <= 0.0168
 B_lb_1,_0: 0.9 p[1,0] + 0.09 p[1,1] + 0.009 p[1,2] + 0.0009 p[1,3]
   + 0.18 p[2,0] + 0.018 p[2,1] + 0.0018 p[2,2] + 0.00018 p[2,3]
   + 0.027 p[3,0] + 0.0027 p[3,1] + 0.00027 p[3,2] + 2.7e-05 p[3,3]
   + 0.0036 p[4,0] + 0.00036 p[4,1] + 3.6e-05 p[4,2] + 3.6e-06 p[4,3]
   + 0.00045 p[5,0] + 4.5e-05 p[5,1] + 4.5e-06 p[5,2] + 4.5e-07 p[5,3]
   >= 0.1773407407407407
 B_ub_1,_0: 0.9 p[1,0] + 0.09 p[1,1] + 0.009 p[1,2] + 0.0009 p[1,3]
   + 0.18 p[2,0] + 0.018 p[2,1] + 0.0018 p[2,2] + 0.00018 p[2,3]
   + 0.027 p[3,0] + 0.0027 p[3,1] + 0.00027 p[3,2] + 2.7e-05 p[3,3]
   + 0.0036 p[4,0] + 0.00036 p[4,1] + 3.6e-05 p[4,2] + 3.6e-06 p[4,3]
   + 0.00045 p[5,0] + 4.5e-05 p[5,1] + 4.5e-06 p[5,2] + 4.5e-07 p[5,3]
   <= 0.2134
 B_lb_1,_1: 0.81 p[1,1] + 0.162 p[1,2] + 0.0243 p[1,3] + 0.162 p[2,1]
   + 0.0324 p[2,2] + 0.00486 p[2,3] + 0.0243 p[3,1] + 0.00486 p[3,2]
   + 0.000729 p[3,3] + 0.00324 p[4,1] + 0.000648 p[4,2] + 9.72e-05 p[4,3]
   + 0.000405 p[5,1] + 8.1e-05 p[5,2] + 1.215e-05 p[5,3]
   >= 0.0279407407407407
 B_ub_1,_1: 0.81 p[1,1] + 0.162 p[1,2] + 0.0243 p[1,3] + 0.162 p[2,1]
   + 0.0324 p[2,2] + 0.00486 p[2,3] + 0.0243 p[3,1] + 0.00486 p[3,2]
   + 0.000729 p[3,3] + 0.00324 p[4,1] + 0.000648 p[4,2] + 9.72e-05 p[4,3]
   + 0.000405 p[5,1] + 8.1e-05 p[5,2] + 1.215e-05 p[5,3] <= 0.054
 B_lb_1,_2: 0.729 p[1,2] + 0.2187 p[1,3] + 0.1458 p[2,2] + 0.04374 p[2,3]
   + 0.02187 p[3,2] + 0.006561 p[3,3] + 0.002916 p[4,2] + 0.0008748 p[4,3]
   + 0.0003645 p[5,2] + 0.00010935 p[5,3] >= -0.00905925925925926
 B_ub_1,_2: 0.729 p[1,2] + 0.2187 p[1,3] + 0.1458 p[2,2] + 0.04374 p[2,3]
   + 0.02187 p[3,2] + 0.006561 p[3,3] + 0.002916 p[4,2] + 0.0008748 p[4,3]
   + 0.0003645 p[5,2] + 0.00010935 p[5,3] <= 0.0098
 B_lb_1,_3: 0.6561 p[1,3] + 0.13122 p[2,3] + 0.019683 p[3,3]
   + 0.0026244 p[4,3] + 0.00032805 p[5,3] >= -0.0142592592592593
 B_ub_1,_3: 0.6561 p[1,3] + 0.13122 p[2,3] + 0.019683 p[3,3]
   + 0.0026244 p[4,3] + 0.00032805 p[5,3] <= 1
 B_lb_2,_0: 0.81 p[2,0] + 0.081 p[2,1] + 0.0081 p[2,2] + 0.00081 p[2,3]
   + 0.243 p[3,0] + 0.0243 p[3,1] + 0.00243 p[3,2] + 0.000243 p[3,3]
   + 0.0486 p[4,0] + 0.00486 p[4,1] + 0.000486 p[4,2] + 4.86e-05 p[4,3]
   + 0.0081 p[5,0] + 0.00081 p[5,1] + 8.1e-05 p[5,2] + 8.1e-06 p[5,3]
   >= 0.0463407407407407
 B_ub_2,_0: 0.81 p[2,0] + 0.081 p[2,1] + 0.0081 p[2,2] + 0.00081 p[2,3]
   + 0.243 p[3,0] + 0.0243 p[3,1] + 0.00243 p[3,2] + 0.000243 p[3,3]
   + 0.0486 p[4,0] + 0.00486 p[4,1] + 0.000486 p[4,2] + 4.86e-05 p[4,3]
   + 0.0081 p[5,0] + 0.00081 p[5,1] + 8.1e-05 p[5,2] + 8.1e-06 p[5,3]
   <= 0.0744
 B_lb_2,_1: 0.729 p[2,1] + 0.1458 p[2,2] + 0.02187 p[2,3] + 0.2187 p[3,1]
   + 0.04374 p[3,2] + 0.006561 p[3,3] + 0.04374 p[4,1] + 0.008748 p[4,2]
   + 0.0013122 p[4,3] + 0.00729 p[5,1] + 0.001458 p[5,2] + 0.0002187 p[5,3]
   >= -0.0104592592592593
 B_ub_2,_1: 0.729 p[2,1] + 0.1458 p[2,2] + 0.02187 p[2,3] + 0.2187 p[3,1]
   + 0.04374 p[3,2] + 0.006561 p[3,3] + 0.04374 p[4,1] + 0.008748 p[4,2]
   + 0.0013122 p[4,3] + 0.00729 p[5,1] + 0.001458 p[5,2] + 0.0002187 p[5,3]
   <= 0.008
 B_lb_2,_2: 0.6561 p[2,2] + 0.19683 p[2,3] + 0.19683 p[3,2]
   + 0.059049 p[3,3] + 0.039366 p[4,2] + 0.0118098 p[4,3] + 0.006561 p[5,2]
   + 0.0019683 p[5,3] >= -0.0142592592592593
 B_ub_2,_2: 0.6561 p[2,2] + 0.19683 p[2,3] + 0.19683 p[3,2]
   + 0.059049 p[3,3] + 0.039366 p[4,2] + 0.0118098 p[4,3] + 0.006561 p[5,2]
   + 0.0019683 p[5,3] <= 1
 B_lb_2,_3: 0.59049 p[2,3] + 0.177147 p[3,3] + 0.0354294 p[4,3]
   + 0.0059049 p[5,3] >= -0.0142592592592593
 B_ub_2,_3: 0.59049 p[2,3] + 0.177147 p[3,3] + 0.0354294 p[4,3]
   + 0.0059049 p[5,3] <= 1
 B_lb_3,_0: 0.729 p[3,0] + 0.0729 p[3,1] + 0.00729 p[3,2] + 0.000729 p[3,3]
   + 0.2916 p[4,0] + 0.02916 p[4,1] + 0.002916 p[4,2] + 0.0002916 p[4,3]
   + 0.0729 p[5,0] + 0.00729 p[5,1] + 0.000729 p[5,2] + 7.29e-05 p[5,3]
   >= -0.00245925925925926
 B_ub_3,_0: 0.729 p[3,0] + 0.0729 p[3,1] + 0.00729 p[3,2] + 0.000729 p[3,3]
   + 0.2916 p[4,0] + 0.02916 p[4,1] + 0.002916 p[4,2] + 0.0002916 p[4,3]
   + 0.0729 p[5,0] + 0.00729 p[5,1] + 0.000729 p[5,2] + 7.29e-05 p[5,3]
   <= 0.0186
 B_lb_3,_1: 0.6561 p[3,1] + 0.13122 p[3,2] + 0.019683 p[3,3]
   + 0.26244 p[4,1] + 0.052488 p[4,2] + 0.0078732 p[4,3] + 0.06561 p[5,1]
   + 0.013122 p[5,2] + 0.0019683 p[5,3] >= -0.0142592592592593
 B_ub_3,_1: 0.6561 p[3,1] + 0.13122 p[3,2] + 0.019683 p[3,3]
   + 0.26244 p[4,1] + 0.052488 p[4,2] + 0.0078732 p[4,3] + 0.06561 p[5,1]
   + 0.013122 p[5,2] + 0.0019683 p[5,3] <= 1
 B_lb_3,_2: 0.59049 p[3,2] + 0.177147 p[3,3] + 0.236196 p[4,2]
   + 0.0708588 p[4,3] + 0.059049 p[5,2] + 0.0177147 p[5,3]
   >= -0.0142592592592593
 B_ub_3,_2: 0.59049 p[3,2] + 0.177147 p[3,3] + 0.236196 p[4,2]
   + 0.0708588 p[4,3] + 0.059049 p[5,2] + 0.0177147 p[5,3] <= 1
 B_lb_3,_3: 0.531441 p[3,3] + 0.2125763999999906 p[4,3] + 0.0531441 p[5,3]
   >= -0.0142592592592593
 B_ub_3,_3: 0.531441 p[3,3] + 0.2125763999999906 p[4,3] + 0.0531441 p[5,3]
   <= 1
 B_lb_4,_0: 0.6561 p[4,0] + 0.06561 p[4,1] + 0.006561 p[4,2]
   + 0.0006561 p[4,3] + 0.32805 p[5,0] + 0.032805 p[5,1] + 0.0032805 p[5,2]
   + 0.00032805 p[5,3] >= -0.0128592592592593
 B_ub_4,_0: 0.6561 p[4,0] + 0.06561 p[4,1] + 0.006561 p[4,2]
   + 0.0006561 p[4,3] + 0.32805 p[5,0] + 0.032805 p[5,1] + 0.0032805 p[5,2]
   + 0.00032805 p[5,3] <= 0.0044
 B_lb_4,_1: 0.59049 p[4,1] + 0.118098 p[4,2] + 0.0177147 p[4,3]
   + 0.295245 p[5,1] + 0.059049 p[5,2] + 0.00885735 p[5,3]
   >= -0.0142592592592593
 B_ub_4,_1: 0.59049 p[4,1] + 0.118098 p[4,2] + 0.0177147 p[4,3]
   + 0.295245 p[5,1] + 0.059049 p[5,2] + 0.00885735 p[5,3] <= 1
 B_lb_4,_2: 0.531441 p[4,2] + 0.159432299999993 p[4,3]
   + 0.2657204999999883 p[5,2] + 0.0797161500000055 p[5,3]
   >= -0.0142592592592593
 B_ub_4,_2: 0.531441 p[4,2] + 0.159432299999993 p[4,3]
   + 0.2657204999999883 p[5,2] + 0.0797161500000055 p[5,3] <= 1
 B_lb_4,_3: 0.4782968999999902 p[4,3] + 0.2391484499999688 p[5,3]
   >= -0.0142592592592593
 B_ub_4,_3: 0.4782968999999902 p[4,3] + 0.2391484499999688 p[5,3] <= 1
 B_lb_5,_0: 0.59049 p[5,0] + 0.059049 p[5,1] + 0.0059049 p[5,2]
   + 0.00059049 p[5,3] >= -0.0142592592592593
 B_ub_5,_0: 0.59049 p[5,0] + 0.059049 p[5,1] + 0.0059049 p[5,2]
   + 0.00059049 p[5,3] <= 1
 B_lb_5,_1: 0.531441 p[5,1] + 0.1062881999999953 p[5,2]
   + 0.0159432300000011 p[5,3] >= -0.0142592592592593
 B_ub_5,_1: 0.531441 p[5,1] + 0.1062881999999953 p[5,2]
   + 0.0159432300000011 p[5,3] <= 1
 B_lb_5,_2: 0.4782968999999902 p[5,2] + 0.1434890699999813 p[5,3]
   >= -0.0142592592592593
 B_ub_5,_2: 0.4782968999999902 p[5,2] + 0.1434890699999813 p[5,3] <= 1
 B_lb_5,_3: 0.4304672099999827 p[5,3] >= -0.0142592592592593
 B_ub_5,_3: 0.4304672099999827 p[5,3] <= 1
 B_marginal_lb_0: p1[0] + 0.1 p1[1] + 0.01 p1[2] + 0.001 p1[3]
   + 0.0001 p1[4] + 1e-05 p1[5] >= 0.5439851851851852
 B_marginal_ub_0: p1[0] + 0.1 p1[1] + 0.01 p1[2] + 0.001 p1[3]
   + 0.0001 p1[4] + 1e-05 p1[5] <= 0.660805
 B_marginal_lb_1: 0.9 p1[1] + 0.18 p1[2] + 0.027 p1[3] + 0.0036 p1[4]
   + 0.00045 p1[5] >= 0.1557851851851852
 B_marginal_ub_1: 0.9 p1[1] + 0.18 p1[2] + 0.027 p1[3] + 0.0036 p1[4]
   + 0.00045 p1[5] <= 0.2712
 B_marginal_lb_2: 0.81 p1[2] + 0.243 p1[3] + 0.0486 p1[4] + 0.0081 p1[5]
   >= -0.0244148148148148
 B_marginal_ub_2: 0.81 p1[2] + 0.243 p1[3] + 0.0486 p1[4] + 0.0081 p1[5]
   <= 0.0808
 B_marginal_lb_3: 0.729 p1[3] + 0.2916 p1[4] + 0.0729 p1[5]
   >= -0.0778148148148148
 B_marginal_ub_3: 0.729 p1[3] + 0.2916 p1[4] + 0.0729 p1[5] <= 0.02
 B_marginal_lb_4: 0.6561 p1[4] + 0.32805 p1[5] >= -0.0894148148148148
 B_marginal_ub_4: 0.6561 p1[4] + 0.32805 p1[5] <= 0.0044
 B_marginal_lb_5: 0.59049 p1[5] >= -0.0908148148148148
 B_marginal_ub_5: 0.59049 p1[5] <= 1
 B_marginal_lb_0: p2[0] + 0.1 p2[1] + 0.01 p2[2] + 0.001 p2[3]
   >= 0.5212111111111111
 B_marginal_ub_0: p2[0] + 0.1 p2[1] + 0.01 p2[2] + 0.001 p2[3] <= 0.676
 B_marginal_lb_1: 0.9 p2[1] + 0.18 p2[2] + 0.027 p2[3]
   >= 0.1102111111111111
 B_marginal_ub_1: 0.9 p2[1] + 0.18 p2[2] + 0.027 p2[3] <= 0.263
 B_marginal_lb_2: 0.81 p2[2] + 0.243 p2[3] >= -0.0659888888888888
 B_marginal_ub_2: 0.81 p2[2] + 0.243 p2[3] <= 0.0766
 B_marginal_lb_3: 0.729 p2[3] >= -0.1171888888888889
 B_marginal_ub_3: 0.729 p2[3] <= 0.0178
 frechet_lb_0,_0: - p[0,0] + p1[0] + p2[0] <= 1
 frechet_ub_x1_0: p[0,0] - p1[0] <= 0
 frechet_ub_x2_0: p[0,0] - p2[0] <= 0
 frechet_lb_0,_1: - p[0,1] + p1[0] + p2[1] <= 1
 frechet_ub_x1_0: p[0,1] - p1[0] <= 0
 frechet_ub_x2_1: p[0,1] - p2[1] <= 0
 frechet_lb_0,_2: - p[0,2] + p1[0] + p2[2] <= 1
 frechet_ub_x1_0: p[0,2] - p1[0] <= 0
 frechet_ub_x2_2: p[0,2] - p2[2] <= 0
 frechet_lb_0,_3: - p[0,3] + p1[0] + p2[3] <= 1
 frechet_ub_x1_0: p[0,3] - p1[0] <= 0
 frechet_ub_x2_3: p[0,3] - p2[3] <= 0
 frechet_lb_1,_0: - p[1,0] + p1[1] + p2[0] <= 1
 frechet_ub_x1_1: p[1,0] - p1[1] <= 0
 frechet_ub_x2_0: p[1,0] - p2[0] <= 0
 frechet_lb_1,_1: - p[1,1] + p1[1] + p2[1] <= 1
 frechet_ub_x1_1: p[1,1] - p1[1] <= 0
 frechet_ub_x2_1: p[1,1] - p2[1] <= 0
 frechet_lb_1,_2: - p[1,2] + p1[1] + p2[2] <= 1
 frechet_ub_x1_1: p[1,2] - p1[1] <= 0
 frechet_ub_x2_2: p[1,2] - p2[2] <= 0
 frechet_lb_1,_3: - p[1,3] + p1[1] + p2[3] <= 1
 frechet_ub_x1_1: p[1,3] - p1[1] <= 0
 frechet_ub_x2_3: p[1,3] - p2[3] <= 0
 frechet_lb_2,_0: - p[2,0] + p1[2] + p2[0] <= 1
 frechet_ub_x1_2: p[2,0] - p1[2] <= 0
 frechet_ub_x2_0: p[2,0] - p2[0] <= 0
 frechet_lb_2,_1: - p[2,1] + p1[2] + p2[1] <= 1
 frechet_ub_x1_2: p[2,1] - p1[2] <= 0
 frechet_ub_x2_1: p[2,1] - p2[1] <= 0
 frechet_lb_2,_2: - p[2,2] + p1[2] + p2[2] <= 1
 frechet_ub_x1_2: p[2,2] - p1[2] <= 0
 frechet_ub_x2_2: p[2,2] - p2[2] <= 0
 frechet_lb_2,_3: - p[2,3] + p1[2] + p2[3] <= 1
 frechet_ub_x1_2: p[2,3] - p1[2] <= 0
 frechet_ub_x2_3: p[2,3] - p2[3] <= 0
 frechet_lb_3,_0: - p[3,0] + p1[3] + p2[0] <= 1
 frechet_ub_x1_3: p[3,0] - p1[3] <= 0
 frechet_ub_x2_0: p[3,0] - p2[0] <= 0
 frechet_lb_3,_1: - p[3,1] + p1[3] + p2[1] <= 1
 frechet_ub_x1_3: p[3,1] - p1[3] <= 0
 frechet_ub_x2_1: p[3,1] - p2[1] <= 0
 frechet_lb_3,_2: - p[3,2] + p1[3] + p2[2] <= 1
 frechet_ub_x1_3: p[3,2] - p1[3] <= 0
 frechet_ub_x2_2: p[3,2] - p2[2] <= 0
 frechet_lb_3,_3: - p[3,3] + p1[3] + p2[3] <= 1
 frechet_ub_x1_3: p[3,3] - p1[3] <= 0
 frechet_ub_x2_3: p[3,3] - p2[3] <= 0
 frechet_lb_4,_0: - p[4,0] + p1[4] + p2[0] <= 1
 frechet_ub_x1_4: p[4,0] - p1[4] <= 0
 frechet_ub_x2_0: p[4,0] - p2[0] <= 0
 frechet_lb_4,_1: - p[4,1] + p1[4] + p2[1] <= 1
 frechet_ub_x1_4: p[4,1] - p1[4] <= 0
 frechet_ub_x2_1: p[4,1] - p2[1] <= 0
 frechet_lb_4,_2: - p[4,2] + p1[4] + p2[2] <= 1
 frechet_ub_x1_4: p[4,2] - p1[4] <= 0
 frechet_ub_x2_2: p[4,2] - p2[2] <= 0
 frechet_lb_4,_3: - p[4,3] + p1[4] + p2[3] <= 1
 frechet_ub_x1_4: p[4,3] - p1[4] <= 0
 frechet_ub_x2_3: p[4,3] - p2[3] <= 0
 frechet_lb_5,_0: - p[5,0] + p1[5] + p2[0] <= 1
 frechet_ub_x1_5: p[5,0] - p1[5] <= 0
 frechet_ub_x2_0: p[5,0] - p2[0] <= 0
 frechet_lb_5,_1: - p[5,1] + p1[5] + p2[1] <= 1
 frechet_ub_x1_5: p[5,1] - p1[5] <= 0
 frechet_ub_x2_1: p[5,1] - p2[1] <= 0
 frechet_lb_5,_2: - p[5,2] + p1[5] + p2[2] <= 1
 frechet_ub_x1_5: p[5,2] - p1[5] <= 0
 frechet_ub_x2_2: p[5,2] - p2[2] <= 0
 frechet_lb_5,_3: - p[5,3] + p1[5] + p2[3] <= 1
 frechet_ub_x1_5: p[5,3] - p1[5] <= 0
 frechet_ub_x2_3: p[5,3] - p2[3] <= 0
 Distribution: p[0,0] + p[0,1] + p[0,2] + p[0,3] + p[1,0] + p[1,1] + p[1,2]
   + p[1,3] + p[2,0] + p[2,1] + p[2,2] + p[2,3] + p[3,0] + p[3,1] + p[3,2]
   + p[3,3] + p[4,0] + p[4,1] + p[4,2] + p[4,3] + p[5,0] + p[5,1] + p[5,2]
   + p[5,3] <= 1
 Distribution_x1: p1[0] + p1[1] + p1[2] + p1[3] + p1[4] + p1[5] <= 1
 Distribution_x2: p2[0] + p2[1] + p2[2] + p2[3] <= 1
 Equation_0,_0: [ - p[0,0] * k_tx_1 - p[0,0] * k_tx_2 + p[0,1] * k_deg_2
   + p[1,0] * k_deg_1 + p[1,1] * k_reg ] = 0
 Equation_0,_1: [ p[0,0] * k_tx_2 - p[0,1] * k_tx_1 - p[0,1] * k_tx_2
   - p[0,1] * k_deg_2 + 2 p[0,2] * k_deg_2 + p[1,1] * k_deg_1
   + 2 p[1,2] * k_reg ] = 0
 Equation_0,_2: [ p[0,1] * k_tx_2 - p[0,2] * k_tx_1 - p[0,2] * k_tx_2
   - 2 p[0,2] * k_deg_2 + 3 p[0,3] * k_deg_2 + p[1,2] * k_deg_1
   + 3 p[1,3] * k_reg ] = 0
 Equation_1,_0: [ p[0,0] * k_tx_1 - p[1,0] * k_tx_1 - p[1,0] * k_tx_2
   - p[1,0] * k_deg_1 + p[1,1] * k_deg_2 + 2 p[2,0] * k_deg_1
   + 2 p[2,1] * k_reg ] = 0
 Equation_1,_1: [ p[0,1] * k_tx_1 + p[1,0] * k_tx_2 - p[1,1] * k_tx_1
   - p[1,1] * k_tx_2 - p[1,1] * k_deg_1 - p[1,1] * k_deg_2 - p[1,1] * k_reg
   + 2 p[1,2] * k_deg_2 + 2 p[2,1] * k_deg_1 + 4 p[2,2] * k_reg ] = 0
 Equation_1,_2: [ p[0,2] * k_tx_1 + p[1,1] * k_tx_2 - p[1,2] * k_tx_1
   - p[1,2] * k_tx_2 - p[1,2] * k_deg_1 - 2 p[1,2] * k_deg_2
   - 2 p[1,2] * k_reg + 3 p[1,3] * k_deg_2 + 2 p[2,2] * k_deg_1
   + 6 p[2,3] * k_reg ] = 0
 Equation_2,_0: [ p[1,0] * k_tx_1 - p[2,0] * k_tx_1 - p[2,0] * k_tx_2
   - 2 p[2,0] * k_deg_1 + p[2,1] * k_deg_2 + 3 p[3,0] * k_deg_1
   + 3 p[3,1] * k_reg ] = 0
 Equation_2,_1: [ p[1,1] * k_tx_1 + p[2,0] * k_tx_2 - p[2,1] * k_tx_1
   - p[2,1] * k_tx_2 - 2 p[2,1] * k_deg_1 - p[2,1] * k_deg_2
   - 2 p[2,1] * k_reg + 2 p[2,2] * k_deg_2 + 3 p[3,1] * k_deg_1
   + 6 p[3,2] * k_reg ] = 0
 Equation_2,_2: [ p[1,2] * k_tx_1 + p[2,1] * k_tx_2 - p[2,2] * k_tx_1
   - p[2,2] * k_tx_2 - 2 p[2,2] * k_deg_1 - 2 p[2,2] * k_deg_2
   - 4 p[2,2] * k_reg + 3 p[2,3] * k_deg_2 + 3 p[3,2] * k_deg_1
   + 9 p[3,3] * k_reg ] = 0
 Equation_3,_0: [ p[2,0] * k_tx_1 - p[3,0] * k_tx_1 - p[3,0] * k_tx_2
   - 3 p[3,0] * k_deg_1 + p[3,1] * k_deg_2 + 4 p[4,0] * k_deg_1
   + 4 p[4,1] * k_reg ] = 0
 Equation_3,_1: [ p[2,1] * k_tx_1 + p[3,0] * k_tx_2 - p[3,1] * k_tx_1
   - p[3,1] * k_tx_2 - 3 p[3,1] * k_deg_1 - p[3,1] * k_deg_2
   - 3 p[3,1] * k_reg + 2 p[3,2] * k_deg_2 + 4 p[4,1] * k_deg_1
   + 8 p[4,2] * k_reg ] = 0
 Equation_3,_2: [ p[2,2] * k_tx_1 + p[3,1] * k_tx_2 - p[3,2] * k_tx_1
   - p[3,2] * k_tx_2 - 3 p[3,2] * k_deg_1 - 2 p[3,2] * k_deg_2
   - 6 p[3,2] * k_reg + 3 p[3,3] * k_deg_2 + 4 p[4,2] * k_deg_1
   + 12 p[4,3] * k_reg ] = 0
 Equation_4,_0: [ p[3,0] * k_tx_1 - p[4,0] * k_tx_1 - p[4,0] * k_tx_2
   - 4 p[4,0] * k_deg_1 + p[4,1] * k_deg_2 + 5 p[5,0] * k_deg_1
   + 5 p[5,1] * k_reg ] = 0
 Equation_4,_1: [ p[3,1] * k_tx_1 + p[4,0] * k_tx_2 - p[4,1] * k_tx_1
   - p[4,1] * k_tx_2 - 4 p[4,1] * k_deg_1 - p[4,1] * k_deg_2
   - 4 p[4,1] * k_reg + 2 p[4,2] * k_deg_2 + 5 p[5,1] * k_deg_1
   + 10 p[5,2] * k_reg ] = 0
 Equation_4,_2: [ p[3,2] * k_tx_1 + p[4,1] * k_tx_2 - p[4,2] * k_tx_1
   - p[4,2] * k_tx_2 - 4 p[4,2] * k_deg_1 - 2 p[4,2] * k_deg_2
   - 8 p[4,2] * k_reg + 3 p[4,3] * k_deg_2 + 5 p[5,2] * k_deg_1
   + 15 p[5,3] * k_reg ] = 0
Bounds
 p[0,0] <= 1
 p[0,1] <= 1
 p[0,2] <= 1
 p[0,3] <= 1
 p[1,0] <= 1
 p[1,1] <= 1
 p[1,2] <= 1
 p[1,3] <= 1
 p[2,0] <= 1
 p[2,1] <= 1
 p[2,2] <= 1
 p[2,3] <= 1
 p[3,0] <= 1
 p[3,1] <= 1
 p[3,2] <= 1
 p[3,3] <= 1
 p[4,0] <= 1
 p[4,1] <= 1
 p[4,2] <= 1
 p[4,3] <= 1
 p[5,0] <= 1
 p[5,1] <= 1
 p[5,2] <= 1
 p[5,3] <= 1
 p1[0] <= 1
 p1[1] <= 1
 p1[2] <= 1
 p1[3] <= 1
 p1[4] <= 1
 p1[5] <= 1
 p2[0] <= 1
 p2[1] <= 1
 p2[2] <= 1
 p2[3] <= 1
 k_tx_1 <= 10
 k_tx_2 <= 10
 k_deg_1 <= 10
 k_deg_2 <= 10
 k_reg <= 10
End
